50
10809

205 804
253 249
633 861
35 610
199 998
663 254
265 287
798 416
704 672
401 431
380 758
856 70
210 707
38 706
679 385
911 79
95 131
749 598
508 542
782 783
333 458
998 150
29 600
785 995
415 379
469 517
142 675
972 371
864 118
473 264
675 68
417 315
679 537
651 673
198 730
577 440
494 694
612 113
110 806
83 998
722 438
416 394
236 581
679 89
625 947
435 102
537 931
108 606
564 662
118 740
